
Z:\home\slack\apuntes\cardinalidades\cod1>ampl CC.run 
=======================================
CPLEX 12.6.3.0: timelimit=1000
timing=2
mipdisplay=3
mipgap=1E-6
integrality=1E-8
feasibility=1E-9
Reduced MIQCP has 302 rows, 750 columns, and 1200 nonzeros.
Reduced MIQCP has 150 binaries, 0 generals, 0 SOSs, and 0 indicators.
Reduced MIQCP has 150 quadratic constraints.
Probing time = 0.00 sec. (0.06 ticks)
MIP emphasis: balance optimality and feasibility.
MIP search method: dynamic search.
Parallel mode: deterministic, using up to 4 threads.
Root relaxation solution time = 0.00 sec. (0.30 ticks)

        Nodes                                         Cuts/
   Node  Left     Objective  IInf  Best Integer    Best Bound    ItCnt     Gap

      0     0        0.0000     0                      0.0000        0         
      0     0        0.0000     0                     Cone: 1        1         
      0     0        0.0000     0                     Cone: 2        2         
      0     0        0.0000     0                     Cone: 3        3         
      0     0        0.0000     0                     Cone: 4        4         
      0     0        0.0000     0                     Cone: 5        5         
      0     0        0.0000     0                     Cone: 6        6         
      0     0        0.4987     0                   Cone: 157      163         
      0     0        0.4987     0                   Cone: 162      168         
      0     0        0.4987     0                   Cone: 167      173         
      0     0        0.4987     0                   Cone: 172      177         
      0     0        0.4987     0                   Cone: 177      181         
      0     0        0.4987     0                   Cone: 182      185         
      0     0        0.4987     0                   Cone: 185      188         
      0     0        0.4987     0                   Cone: 188      192         
      0     0        0.4987     0                   Cone: 190      195         
      0     0        0.4987     0                   Cone: 191      196         
*     0     0      integral     0        0.4987        0.4987      196    0.00%
Found incumbent of value 0.498702 after 0.28 sec. (56.34 ticks)

Cone linearizations applied:  161

Root node processing (before b&c):
  Real time             =    0.28 sec. (56.36 ticks)
Parallel b&c, 4 threads:
  Real time             =    0.00 sec. (0.00 ticks)
  Sync time (average)   =    0.00 sec.
  Wait time (average)   =    0.00 sec.
                          ------------
Total (root+branch&cut) =    0.28 sec. (56.36 ticks)

Times (seconds):
Input =  0
Solve =  0.3
Output = 0.02
CPLEX 12.6.3.0: optimal integer solution within mipgap or absmipgap; objective 0.4987017436
196 MIP simplex iterations
0 branch-and-bound nodes
absmipgap = 1.32438e-08, relmipgap = 2.65565e-08
Tried aggregator 2 times
No basis.
=======================================
CPLEX 12.6.3.0: timelimit=1000
timing=2
mipdisplay=3
mipgap=1E-6
integrality=1E-8
feasibility=1E-9

Times (seconds):
Input =  0
Solve =  0.18
Output = 0.02
CPLEX 12.6.3.0: optimal solution; objective 0.3995535283
31 barrier iterations
No basis.
=======================================
Gurobi 6.5.2: timelim=1000
logfreq=5
outlev=1
timing=1
mipgap=1E-6
Optimize a model with 1 rows, 450 columns and 150 nonzeros
Model has 151 quadratic constraints
Coefficient statistics:
  Matrix range    [1e+00, 1e+00]
  Objective range [2e-04, 1e+00]
  Bounds range    [1e+00, 1e+00]
  RHS range       [1e+00, 1e+00]
Presolve time: 0.00s
Presolved: 2 rows, 450 columns, 300 nonzeros
Variable types: 300 continuous, 150 integer (150 binary)

Root relaxation: objective -5.782478e-01, 0 iterations, 0.00 seconds

    Nodes    |    Current Node    |     Objective Bounds      |     Work
 Expl Unexpl |  Obj  Depth IntInf | Incumbent    BestBd   Gap | It/Node Time

     0     0   -0.04486    0    2          -   -0.04486      -     -    0s
H    0     0                       0.1618154   -0.04486   128%     -    0s
     0     0   -0.02778    0    2    0.16182   -0.02778   117%     -    0s
H    0     0                       0.0863070   -0.02778   132%     -    0s
     0     0   -0.01618    0    2    0.08631   -0.01618   119%     -    0s
H    0     0                       0.0476673   -0.01618   134%     -    0s
     0     0   -0.00907    0    2    0.04767   -0.00907   119%     -    0s
H    0     2                       0.0476673   -0.00907   119%     -    0s
     0     2   -0.00594    0    2    0.04767   -0.00594   112%     -    0s
H   42    22                       0.0391913    0.00198  94.9%   7.1    0s
H  105     0                       0.0291323    0.00385  86.8%   6.4    0s
* 7338     0              14       0.0291323    0.02906  0.24%  11.0    2s

Cutting planes:

Explored 7341 nodes (80959 simplex iterations) in 2.18 seconds
Thread count was 4 (of 4 available processors)

Optimal solution found (tolerance 1.00e-06)
Best objective 2.913230944051e-02, best bound 2.913230944051e-02, gap 0.0%

Times (seconds):
Input =  0
Solve =  7.79 (summed over threads)
Output = 0
Elapsed = 3
Gurobi 6.5.2: optimal solution; objective 0.02913230944
80959 simplex iterations
7341 branch-and-cut nodes
No dual variables returned.
=======================================
LOQO 7.03: ignoring integrality of 150 variables
LOQO 7.03: iteration limit (500 iterations, 962 evaluations)
primal objective 0.4394367774
  dual objective 0.4394320742
